param MAXWORK := 32;

param:
TNAME: TWORK :=
'p1' 1600
'p5' 800
'p6' 800
'p13' 800
'p14' 800
'p15' 800
'p20' 800
'p21' 800
'p22' 800
'p23' 800
'p30' 800
'p31' 800
'p32' 800
'p33' 800
'p34' 800
;

set TSCOPE['p1'] :=
1 2 3 4 5 8 9 11 12 15 16 17 18 19 22 23 24 25 26 29 30 31 32 33 36 37 38 39 40 43 44 45 46 47 50 51 52 53 54 57 58 59 60 61 64 65 66 67 68 71
72 73 74 75 78 79 80 81 82 85 86 87 88 89 92 93 94 95 96 99 100 101 102 103 106 107 108
;

set TSCOPE['p5'] :=
1 2 3 4 5 8 9 11 12 15 16 17 18 19 22 23 24 25 26 29 30 31 32 33 36 37 38 39 40 43 44 45 46 47 50 51 52 53 54 57 58 59 60 61 64 65 66 67 68 71
72 73 74 75
;

set TSCOPE['p6'] :=
1 2 3 4 5 8 9 11 12 15 16 17 18 19 22 23 24 25 26 29 30 31 32 33 36 37 38 39 40 43 44 45 46 47 50 51 52 53 54 57 58 59 60 61 64 65 66 67 68 71
72 73 74 75 78 79 80 81 82 85 86 87 88 89 92 93 94 95 96 99 100 101 102 103 106 107 108
;

set TSCOPE['p13'] :=
1 2 3 4 5 8 9 11 12 15 16 17 18 19 22 23 24 25 26 29 30 31 32 33 36 37 38 39 40 43 44 45 46 47 50 51 52 53 54 57 58 59 60 61 64 65 66 67 68 71
72 73 74 75
;

set TSCOPE['p14'] :=
1 2 3 4 5 8 9 11 12 15 16 17 18 19 22 23 24 25 26 29 30 31 32 33 36 37 38 39 40 43 44 45 46 47 50 51 52 53 54 57 58 59 60 61 64 65 66 67 68 71
72 73 74 75 78 79 80 81 82 85 86 87 88 89 92 93 94 95 96 99 100 101 102 103 106 107 108
;

set TSCOPE['p15'] :=
1 2 3 4 5 8 9 11 12 15 16 17 18 19 22 23 24 25 26 29 30 31 32 33 36 37 38 39 40 43 44 45 46 47 50 51 52 53 54 57 58 59 60 61 64 65 66 67 68 71
72 73 74 75 78 79 80 81 82 85 86 87 88 89 92 93 94 95 96 99 100 101 102 103 106 107 108 109 110 113 114 115 116 117 120 121 122 123 124 127 128 129 130 131 134 135 136 137 138
;

set TSCOPE['p20'] :=
1 2 3 4 5 8 9 11 12 15 16 17 18 19 22 23 24 25 26 29 30 31 32 33 36 37 38 39 40 43 44 45 46 47 50 51 52 53 54 57 58 59 60 61 64 65 66 67 68 71
72 73 74 75
;

set TSCOPE['p21'] :=
1 2 3 4 5 8 9 11 12 15 16 17 18 19 22 23 24 25 26 29 30 31 32 33 36 37 38 39 40 43 44 45 46 47 50 51 52 53 54 57 58 59 60 61 64 65 66 67 68 71
72 73 74 75 78 79 80 81 82 85 86 87 88 89 92 93 94 95 96 99 100 101 102 103 106 107 108
;

set TSCOPE['p22'] :=
1 2 3 4 5 8 9 11 12 15 16 17 18 19 22 23 24 25 26 29 30 31 32 33 36 37 38 39 40 43 44 45 46 47 50 51 52 53 54 57 58 59 60 61 64 65 66 67 68 71
72 73 74 75 78 79 80 81 82 85 86 87 88 89 92 93 94 95 96 99 100 101 102 103 106 107 108 109 110 113 114 115 116 117 120 121 122 123 124 127 128 129 130 131 134 135 136 137 138
;

set TSCOPE['p23'] :=
1 2 3 4 5 8 9 11 12 15 16 17 18 19 22 23 24 25 26 29 30 31 32 33 36 37 38 39 40 43 44 45 46 47 50 51 52 53 54 57 58 59 60 61 64 65 66 67 68 71
72 73 74 75 78 79 80 81 82 85 86 87 88 89 92 93 94 95 96 99 100 101 102 103 106 107 108 109 110 113 114 115 116 117 120 121 122 123 124 127 128 129 130 131 134 135 136 137 138 141
142 143 144 145 148 149 150 151 152 155 156 157 158 159 162 163 164 165 166 169
;

set TSCOPE['p30'] :=
1 2 3 4 5 8 9 11 12 15 16 17 18 19 22 23 24 25 26 29 30 31 32 33 36 37 38 39 40 43 44 45 46 47 50 51 52 53 54 57 58 59 60 61 64 65 66 67 68 71
72 73 74 75
;

set TSCOPE['p31'] :=
1 2 3 4 5 8 9 11 12 15 16 17 18 19 22 23 24 25 26 29 30 31 32 33 36 37 38 39 40 43 44 45 46 47 50 51 52 53 54 57 58 59 60 61 64 65 66 67 68 71
72 73 74 75 78 79 80 81 82 85 86 87 88 89 92 93 94 95 96 99 100 101 102 103 106 107 108
;

set TSCOPE['p32'] :=
1 2 3 4 5 8 9 11 12 15 16 17 18 19 22 23 24 25 26 29 30 31 32 33 36 37 38 39 40 43 44 45 46 47 50 51 52 53 54 57 58 59 60 61 64 65 66 67 68 71
72 73 74 75 78 79 80 81 82 85 86 87 88 89 92 93 94 95 96 99 100 101 102 103 106 107 108 109 110 113 114 115 116 117 120 121 122 123 124 127 128 129 130 131 134 135 136 137 138
;

set TSCOPE['p33'] :=
1 2 3 4 5 8 9 11 12 15 16 17 18 19 22 23 24 25 26 29 30 31 32 33 36 37 38 39 40 43 44 45 46 47 50 51 52 53 54 57 58 59 60 61 64 65 66 67 68 71
72 73 74 75 78 79 80 81 82 85 86 87 88 89 92 93 94 95 96 99 100 101 102 103 106 107 108 109 110 113 114 115 116 117 120 121 122 123 124 127 128 129 130 131 134 135 136 137 138 141
142 143 144 145 148 149 150 151 152 155 156 157 158 159 162 163 164 165 166 169
;

set TSCOPE['p34'] :=
1 2 3 4 5 8 9 11 12 15 16 17 18 19 22 23 24 25 26 29 30 31 32 33 36 37 38 39 40 43 44 45 46 47 50 51 52 53 54 57 58 59 60 61 64 65 66 67 68 71
72 73 74 75 78 79 80 81 82 85 86 87 88 89 92 93 94 95 96 99 100 101 102 103 106 107 108 109 110 113 114 115 116 117 120 121 122 123 124 127 128 129 130 131 134 135 136 137 138 141
142 143 144 145 148 149 150 151 152 155 156 157 158 159 162 163 164 165 166 169 170 171 172 173 176 177 178 179 180 183 184 185 186 187 190 191 192 193 194 197 198 199
;

set ENAME :=
'Alojzy'
'Eugeniusz'
'Ignacy'
'Pafnucy'
'Romuald'
;

set ASSIGN :=
'Alojzy' 'p1'
'Eugeniusz' 'p5'
'Eugeniusz' 'p6'
'Ignacy' 'p13'
'Ignacy' 'p14'
'Ignacy' 'p15'
'Pafnucy' 'p20'
'Pafnucy' 'p21'
'Pafnucy' 'p22'
'Pafnucy' 'p23'
'Romuald' 'p30'
'Romuald' 'p31'
'Romuald' 'p32'
'Romuald' 'p33'
'Romuald' 'p34'
;

param:
XBID: XBL XBU :=

;

param:
UBID: UBL UBU :=

;

param:
EBID: EBN EBS EBE EBL EBU :=

;

param:
PNAME: PERS PERE :=
'25.Jan' 1 31
'25.Feb' 32 60
'25.Mar' 61 91
'25.Apr' 92 120
'25.May' 121 154
;

param:
EXPPER: PBL PBU :=
'Alojzy' '25.Jan' 0 800
'Alojzy' '25.Feb' 40 760
'Alojzy' '25.Mar' 80 720
'Eugeniusz' '25.Jan' 0 800
'Ignacy' '25.Jan' 0 800
'Pafnucy' '25.Jan' 0 800
'Romuald' '25.Jan' 0 800
;
